CapLotSizing_PM/src/Instancias/TCLSHT/25i6p2m/NBA06.OUT
 CG ITER, OVMR, OVMRUB =           1   29207.6035156   29207.6035156
 CG ITER, OVMR, OVMRUB =           2   29207.6035156   29207.6035156
 CG ITER, OVMR, OVMRUB =           3   29207.6035156   29207.6035156
 CG ITER, OVMR, OVMRUB =           4   29207.6035156   29207.6035156
 CG ITER, OVMR, OVMRUB =           5   28961.3984375   29207.6035156
 CG ITER, OVMR, OVMRUB =           6   28739.2890625   29207.6035156
 CG ITER, OVMR, OVMRUB =           7   28558.6542969   29207.6035156
 CG ITER, OVMR, OVMRUB =           8   28474.5683594   29207.6035156
 CG ITER, OVMR, OVMRUB =           9   28447.5605469   29207.6035156
 CG ITER, OVMR, OVMRUB =          10   28397.5996094   29207.6035156
 CG ITER, OVMR, OVMRUB =          11   28355.7832031   29207.6035156
 CG ITER, OVMR, OVMRUB =          12   28319.4804688   29207.6035156
 CG ITER, OVMR, OVMRUB =          13   28296.1757812   29207.6035156
 CG ITER, OVMR, OVMRUB =          14   28277.3437500   29207.6035156
 CG ITER, OVMR, OVMRUB =          15   28238.5078125   29207.6035156
 CG ITER, OVMR, OVMRUB =          16   28207.0644531   29207.6035156
 CG ITER, OVMR, OVMRUB =          17   28189.2128906   29207.6035156
 CG ITER, OVMR, OVMRUB =          18   28168.4277344   29207.6035156
 CG ITER, OVMR, OVMRUB =          19   28154.3027344   29207.6035156
 CG ITER, OVMR, OVMRUB =          20   28142.3085938   29207.6035156
 CG ITER, OVMR, OVMRUB =          21   28115.4394531   29207.6035156
 CG ITER, OVMR, OVMRUB =          22   28101.2910156   29207.6035156
 CG ITER, OVMR, OVMRUB =          23   28090.8652344   29207.6035156
 CG ITER, OVMR, OVMRUB =          24   28079.4941406   29207.6035156
 CG ITER, OVMR, OVMRUB =          25   28067.7402344   29207.6035156
 CG ITER, OVMR, OVMRUB =          26   28054.9609375   29207.6035156
 CG ITER, OVMR, OVMRUB =          27   28040.3769531   29207.6035156
 CG ITER, OVMR, OVMRUB =          28   28030.6542969   29207.6035156
 CG ITER, OVMR, OVMRUB =          29   28016.2734375   29207.6035156
 CG ITER, OVMR, OVMRUB =          30   28002.9218750   29207.6035156
 CG ITER, OVMR, OVMRUB =          31   27991.3769531   29207.6035156
 CG ITER, OVMR, OVMRUB =          32   27982.9394531   29077.9980469
 CG ITER, OVMR, OVMRUB =          33   27976.1250000   29077.9980469
 CG ITER, OVMR, OVMRUB =          34   27975.5800781   29077.9980469
 CG ITER, OVMR, OVMRUB =          35   27962.2343750   29077.9980469
 CG ITER, OVMR, OVMRUB =          36   27954.7226562   29077.9980469
 CG ITER, OVMR, OVMRUB =          37   27947.2695312   28999.5527344
 CG ITER, OVMR, OVMRUB =          38   27942.9257812   28999.5527344
 CG ITER, OVMR, OVMRUB =          39   27937.3398438   28999.5527344
 CG ITER, OVMR, OVMRUB =          40   27930.4042969   28852.0937500
 CG ITER, OVMR, OVMRUB =          41   27924.6835938   28793.7011719
 CG ITER, OVMR, OVMRUB =          42   27914.5917969   28793.7011719
 CG ITER, OVMR, OVMRUB =          43   27912.4277344   28793.7011719
 CG ITER, OVMR, OVMRUB =          44   27905.6289062   28664.7031250
 CG ITER, OVMR, OVMRUB =          45   27902.4824219   28664.7031250
 CG ITER, OVMR, OVMRUB =          46   27895.8085938   28664.7031250
 CG ITER, OVMR, OVMRUB =          47   27892.0800781   28664.7031250
 CG ITER, OVMR, OVMRUB =          48   27889.6718750   28664.7031250
 CG ITER, OVMR, OVMRUB =          49   27885.1484375   28664.7031250
 CG ITER, OVMR, OVMRUB =          50   27884.0996094   28570.3984375
 CG ITER, OVMR, OVMRUB =          51   27883.1035156   28278.4980469
 CG ITER, OVMR, OVMRUB =          52   27882.7109375   28278.4980469
 CG ITER, OVMR, OVMRUB =          53   27882.0664062   28278.4980469
 CG ITER, OVMR, OVMRUB =          54   27881.7792969   28278.4980469
 CG ITER, OVMR, OVMRUB =          55   27880.5351562   28255.8007812
 CG ITER, OVMR, OVMRUB =          56   27878.5214844   28255.8007812
 CG ITER, OVMR, OVMRUB =          57   27878.2441406   28200.3847656
 CG ITER, OVMR, OVMRUB =          58   27874.9433594   28030.9960938
 CG ITER, OVMR, OVMRUB =          59   27874.9414062   28030.9960938
 CG ITER, OVMR, OVMRUB =          60   27874.9453125   28030.9960938
 CG ITER, OVMR, OVMRUB =          61   27874.7128906   28030.9960938
 CG ITER, OVMR, OVMRUB =          62   27874.7050781   28030.9960938
 CG ITER, OVMR, OVMRUB =          63   27874.7050781   28030.9960938
OVLB =   27874.7050781 OVLUB =   28030.9960938 TIME =      24.6599998
